# With sync/reset (28,3) , the noise generators output noise at 8Mhz , rather than the usual audio frequecies
#

0 28
0 28 2
0 0
0 0 0
0 1
0 1 0
0 2
0 2 0
0 3
0 3 0
0 4
0 4 0
0 5
0 5 0
0 6
0 6 0
0 7
0 7 0
0 8
0 8 0
0 9
0 9 0
0 10
0 10 0
0 11
0 11 0
0 12
0 12 0
0 13
0 13 0
0 14
0 14 0
0 15
0 15 0
0 16
0 16 0
0 17
0 17 0
0 18
0 18 0
0 19
0 19 0
0 20
0 20 0
0 21
0 21 0
0 22
0 22 0
0 23
0 23 0
0 24
0 24 0
0 25
0 25 0
0 26
0 26 0
0 27
0 27 0
0 28
0 28 2
0 22
0 22 3
0 21
0 21 7
0 0
0 0 255
0 1
0 1 255
0 2
0 2 255
0 16
0 16 7
0 28
0 28 3  # should now see 4MHz noise at output.  This is the 'noise easter egg' mode
50 16
50 16 0  # should now see 32kHz noise at output.  This is also using the 'noise easter egg' mode
100 20
100 20 5  # enabling the tone output for the mixer should actually generate silence, since a stopped (sync=1) oscillator outputs logical 0.  I'm enabling tone output for channels 0 and 2 so you should still see 32kHz noise on channel 1
150 22
150 22 0 
150 20
150 20 0
150 28
150 28 1  # should now see 32kHz noise at output again.  This is the standard (N01:N00=00) noise output mode, sync=False
200 28 0
# end

